Optimal - objective value 20208.36000000
      2 x0_3                   1         -3.97205464519564e-15
      7 x0_8                   1         10.3600000000004
      8 x1_0                   1                   14.64
     17 x2_1                   1                       0
     29 x3_6                   1                       0
     32 x4_0                   1                   35.36
     42 x5_2                   1         -5.32255322456215e-13
     54 x6_7                   1                       0
     60 x7_4                   1                       0
     69 x8_5                   1                       0
     72 u1                    20                       0
     73 u2                    17                       0
     74 u3       7.99999999999999                       0
     75 u4                    20                       0
     76 u5                     9                       0
     77 u6                    11                       0
     78 u7                    15                       0
     79 u8                     5                       0
